Lab4/moving.fzn
predicate jacop_cumulative(array [int] of var int: s,array [int] of var int: d,array [int] of var int: r,var int: b);
array [1..8] of int: X_INTRODUCED_8_ = [3,2,2,1,2,1,1,2];
array [1..8] of int: X_INTRODUCED_9_ = [60,45,30,30,20,15,15,15];
array [1..8] of int: X_INTRODUCED_10_ = [2,1,2,2,2,0,0,1];
array [1..2] of int: X_INTRODUCED_13_ = [1,-1];
var 0..180: X_INTRODUCED_0_;
var 0..180: X_INTRODUCED_1_;
var 0..180: X_INTRODUCED_2_;
var 0..180: X_INTRODUCED_3_;
var 0..180: X_INTRODUCED_4_;
var 0..180: X_INTRODUCED_5_;
var 0..180: X_INTRODUCED_6_;
var 0..180: X_INTRODUCED_7_;
var 0..180: end:: output_var;
array [1..8] of var int: start:: output_array([1..8]) = [X_INTRODUCED_0_,X_INTRODUCED_1_,X_INTRODUCED_2_,X_INTRODUCED_3_,X_INTRODUCED_4_,X_INTRODUCED_5_,X_INTRODUCED_6_,X_INTRODUCED_7_];
constraint jacop_cumulative(start,X_INTRODUCED_9_,X_INTRODUCED_8_,4);
constraint jacop_cumulative(start,X_INTRODUCED_9_,X_INTRODUCED_10_,3);
constraint int_lin_le(X_INTRODUCED_13_,[X_INTRODUCED_0_,end],-60);
constraint int_lin_le(X_INTRODUCED_13_,[X_INTRODUCED_1_,end],-45);
constraint int_lin_le(X_INTRODUCED_13_,[X_INTRODUCED_2_,end],-30);
constraint int_lin_le(X_INTRODUCED_13_,[X_INTRODUCED_3_,end],-30);
constraint int_lin_le(X_INTRODUCED_13_,[X_INTRODUCED_4_,end],-20);
constraint int_lin_le(X_INTRODUCED_13_,[X_INTRODUCED_5_,end],-15);
constraint int_lin_le(X_INTRODUCED_13_,[X_INTRODUCED_6_,end],-15);
constraint int_lin_le(X_INTRODUCED_13_,[X_INTRODUCED_7_,end],-15);
solve  minimize end;
